\ENCODING=ISO-8859-1
\Problem name: MF_model

Maximize
 obj: 233.76 X_1,2_0 + 245.76 X_1,3_0 + 156 X_1,4_0 + 727.2 X_1,5_0
      + 622.08 X_1,6_0 + 233.76 X_2,1_0 + 53.76 X_2,3_0 + 155.68 X_2,4_0
      + 926.4 X_2,5_0 + 828.32 X_2,6_0 + 245.76 X_3,1_0 + 53.76 X_3,2_0
      + 199.04 X_3,4_0 + 907.36 X_3,5_0 + 812.96 X_3,6_0 + 156 X_4,1_0
      + 155.68 X_4,2_0 + 199.04 X_4,3_0 + 882.4 X_4,5_0 + 776.16 X_4,6_0
      + 727.2 X_5,1_0 + 926.4 X_5,2_0 + 907.36 X_5,3_0 + 882.4 X_5,4_0
      + 110.56 X_5,6_0 + 622.08 X_6,1_0 + 828.32 X_6,2_0 + 812.96 X_6,3_0
      + 776.16 X_6,4_0 + 110.56 X_6,5_0 + 233.76 W_1,2_0 + 245.76 W_1,3_0
      + 156 W_1,4_0 + 727.2 W_1,5_0 + 622.08 W_1,6_0 + 233.76 W_2,1_0
      + 53.76 W_2,3_0 + 155.68 W_2,4_0 + 926.4 W_2,5_0 + 828.32 W_2,6_0
      + 245.76 W_3,1_0 + 53.76 W_3,2_0 + 199.04 W_3,4_0 + 907.36 W_3,5_0
      + 812.96 W_3,6_0 + 156 W_4,1_0 + 155.68 W_4,2_0 + 199.04 W_4,3_0
      + 882.4 W_4,5_0 + 776.16 W_4,6_0 + 727.2 W_5,1_0 + 926.4 W_5,2_0
      + 907.36 W_5,3_0 + 882.4 W_5,4_0 + 110.56 W_5,6_0 + 622.08 W_6,1_0
      + 828.32 W_6,2_0 + 812.96 W_6,3_0 + 776.16 W_6,4_0 + 110.56 W_6,5_0
      - 42076.8 Z_1,2_1 - 44236.8 Z_1,3_1 - 28080 Z_1,4_1 - 130896 Z_1,5_1
      - 111974.4 Z_1,6_1 - 42076.8 Z_2,1_1 - 9676.8 Z_2,3_1 - 28022.4 Z_2,4_1
      - 166752 Z_2,5_1 - 149097.6 Z_2,6_1 - 44236.8 Z_3,1_1 - 9676.8 Z_3,2_1
      - 35827.2 Z_3,4_1 - 163324.8 Z_3,5_1 - 146332.8 Z_3,6_1 - 28080 Z_4,1_1
      - 28022.4 Z_4,2_1 - 35827.2 Z_4,3_1 - 158832 Z_4,5_1 - 139708.8 Z_4,6_1
      - 130896 Z_5,1_1 - 166752 Z_5,2_1 - 163324.8 Z_5,3_1 - 158832 Z_5,4_1
      - 19900.8 Z_5,6_1 - 111974.4 Z_6,1_1 - 149097.6 Z_6,2_1
      - 146332.8 Z_6,3_1 - 139708.8 Z_6,4_1 - 19900.8 Z_6,5_1 - 25713.6 Z_1,2_2
      - 27033.6 Z_1,3_2 - 17160 Z_1,4_2 - 79992 Z_1,5_2 - 68428.8 Z_1,6_2
      - 25713.6 Z_2,1_2 - 5913.6 Z_2,3_2 - 17124.8 Z_2,4_2 - 101904 Z_2,5_2
      - 91115.2 Z_2,6_2 - 27033.6 Z_3,1_2 - 5913.6 Z_3,2_2 - 21894.4 Z_3,4_2
      - 99809.6 Z_3,5_2 - 89425.6 Z_3,6_2 - 17160 Z_4,1_2 - 17124.8 Z_4,2_2
      - 21894.4 Z_4,3_2 - 97064 Z_4,5_2 - 85377.6 Z_4,6_2 - 79992 Z_5,1_2
      - 101904 Z_5,2_2 - 99809.6 Z_5,3_2 - 97064 Z_5,4_2 - 12161.6 Z_5,6_2
      - 68428.8 Z_6,1_2 - 91115.2 Z_6,2_2 - 89425.6 Z_6,3_2 - 85377.6 Z_6,4_2
      - 12161.6 Z_6,5_2
Subject To
 Demand:                     X_1,1_0 + W_1,1_0  = 0
 Demand:                     X_1,2_0 + W_1,2_0 - RgDemand  = 0
 Demand:                     X_1,3_0 + W_1,3_0 - RgDemand  = 0
 Demand:                     X_1,4_0 + W_1,4_0 - RgDemand  = 0
 Demand:                     X_1,5_0 + W_1,5_0 - RgDemand  = 0
 Demand:                     X_1,6_0 + W_1,6_0 - RgDemand  = 0
 Demand:                     X_2,1_0 + W_2,1_0 - RgDemand  = 0
 Demand:                     X_2,2_0 + W_2,2_0  = 0
 Demand:                     X_2,3_0 + W_2,3_0 - RgDemand  = 0
 Demand:                     X_2,4_0 + W_2,4_0 - RgDemand  = 0
 Demand:                     X_2,5_0 + W_2,5_0 - RgDemand  = 0
 Demand:                     X_2,6_0 + W_2,6_0 - RgDemand  = 0
 Demand:                     X_3,1_0 + W_3,1_0 - RgDemand  = 0
 Demand:                     X_3,2_0 + W_3,2_0 - RgDemand  = 0
 Demand:                     X_3,3_0 + W_3,3_0  = 0
 Demand:                     X_3,4_0 + W_3,4_0 - RgDemand  = 0
 Demand:                     X_3,5_0 + W_3,5_0 - RgDemand  = 0
 Demand:                     X_3,6_0 + W_3,6_0 - RgDemand  = 0
 Demand:                     X_4,1_0 + W_4,1_0 - RgDemand  = 0
 Demand:                     X_4,2_0 + W_4,2_0 - RgDemand  = 0
 Demand:                     X_4,3_0 + W_4,3_0 - RgDemand  = 0
 Demand:                     X_4,4_0 + W_4,4_0  = 0
 Demand:                     X_4,5_0 + W_4,5_0 - RgDemand  = 0
 Demand:                     X_4,6_0 + W_4,6_0 - RgDemand  = 0
 Demand:                     X_5,1_0 + W_5,1_0 - RgDemand  = 0
 Demand:                     X_5,2_0 + W_5,2_0 - RgDemand  = 0
 Demand:                     X_5,3_0 + W_5,3_0 - RgDemand  = 0
 Demand:                     X_5,4_0 + W_5,4_0 - RgDemand  = 0
 Demand:                     X_5,5_0 + W_5,5_0  = 0
 Demand:                     X_5,6_0 + W_5,6_0 - RgDemand  = 0
 Demand:                     X_6,1_0 + W_6,1_0 - RgDemand  = 0
 Demand:                     X_6,2_0 + W_6,2_0 - RgDemand  = 0
 Demand:                     X_6,3_0 + W_6,3_0 - RgDemand  = 0
 Demand:                     X_6,4_0 + W_6,4_0 - RgDemand  = 0
 Demand:                     X_6,5_0 + W_6,5_0 - RgDemand  = 0
 Demand:                     X_6,6_0 + W_6,6_0  = 0
 Transfer:                   W_1,1_0  = 0
 Transfer:                   W_1,2_0  = 0
 Transfer:                   W_1,3_0  = 0
 Transfer:                   W_1,4_0  = 0
 Transfer:                   W_1,5_0  = 0
 Transfer:                   W_1,6_0  = 0
 Transfer:                   W_2,1_0  = 0
 Transfer:                   W_2,2_0  = 0
 Transfer:                   W_2,3_0 - RgTransfer  = 0
 Transfer:                   W_2,4_0 - RgTransfer  = 0
 Transfer:                   W_2,5_0 - RgTransfer  = 0
 Transfer:                   W_2,6_0 - RgTransfer  = 0
 Transfer:                   W_3,1_0  = 0
 Transfer:                   W_3,2_0 - RgTransfer  = 0
 Transfer:                   W_3,3_0  = 0
 Transfer:                   W_3,4_0 - RgTransfer  = 0
 Transfer:                   W_3,5_0 - RgTransfer  = 0
 Transfer:                   W_3,6_0 - RgTransfer  = 0
 Transfer:                   W_4,1_0  = 0
 Transfer:                   W_4,2_0 - RgTransfer  = 0
 Transfer:                   W_4,3_0 - RgTransfer  = 0
 Transfer:                   W_4,4_0  = 0
 Transfer:                   W_4,5_0 - RgTransfer  = 0
 Transfer:                   W_4,6_0 - RgTransfer  = 0
 Transfer:                   W_5,1_0  = 0
 Transfer:                   W_5,2_0 - RgTransfer  = 0
 Transfer:                   W_5,3_0 - RgTransfer  = 0
 Transfer:                   W_5,4_0 - RgTransfer  = 0
 Transfer:                   W_5,5_0  = 0
 Transfer:                   W_5,6_0 - RgTransfer  = 0
 Transfer:                   W_6,1_0  = 0
 Transfer:                   W_6,2_0 - RgTransfer  = 0
 Transfer:                   W_6,3_0 - RgTransfer  = 0
 Transfer:                   W_6,4_0 - RgTransfer  = 0
 Transfer:                   W_6,5_0 - RgTransfer  = 0
 Transfer:                   W_6,6_0  = 0
 CapacityVerification1_1_2_: X_1,1_0 + W_1,1_0 + W_1,2_0 + W_1,3_0 + W_1,4_0
                             + W_1,5_0 + W_1,6_0 + W_2,1_0 + W_3,1_0 + W_4,1_0
                             + W_5,1_0 + W_6,1_0 + 192 Z_1,1_1 + 128 Z_1,1_2
                             <= 0
 CapacityVerification1_2_2_: X_1,2_0 + W_2,2_0 + W_3,2_0 + W_4,2_0 + W_5,2_0
                             + W_6,2_0 + 192 Z_1,2_1 + 128 Z_1,2_2 <= 0
 CapacityVerification1_3_2_: X_1,3_0 + W_2,3_0 + W_3,3_0 + W_4,3_0 + W_5,3_0
                             + W_6,3_0 + 192 Z_1,3_1 + 128 Z_1,3_2 <= 0
 CapacityVerification1_4_2_: X_1,4_0 + W_2,4_0 + W_3,4_0 + W_4,4_0 + W_5,4_0
                             + W_6,4_0 + 192 Z_1,4_1 + 128 Z_1,4_2 <= 0
 CapacityVerification1_5_2_: X_1,5_0 + W_2,5_0 + W_3,5_0 + W_4,5_0 + W_5,5_0
                             + W_6,5_0 + 192 Z_1,5_1 + 128 Z_1,5_2 <= 0
 CapacityVerification1_6_2_: X_1,6_0 + W_2,6_0 + W_3,6_0 + W_4,6_0 + W_5,6_0
                             + W_6,6_0 + 192 Z_1,6_1 + 128 Z_1,6_2 <= 0
 CapacityVerification2_1_2_: X_2,1_0 + W_2,2_0 + W_2,3_0 + W_2,4_0 + W_2,5_0
                             + W_2,6_0 + 192 Z_2,1_1 + 128 Z_2,1_2 <= 0
 CapacityVerification2_2_2_: X_2,2_0 + 192 Z_2,2_1 + 128 Z_2,2_2 <= 0
 CapacityVerification2_3_2_: X_2,3_0 + 192 Z_2,3_1 + 128 Z_2,3_2 <= 0
 CapacityVerification2_4_2_: X_2,4_0 + 192 Z_2,4_1 + 128 Z_2,4_2 <= 0
 CapacityVerification2_5_2_: X_2,5_0 + 192 Z_2,5_1 + 128 Z_2,5_2 <= 0
 CapacityVerification2_6_2_: X_2,6_0 + 192 Z_2,6_1 + 128 Z_2,6_2 <= 0
 CapacityVerification3_1_2_: X_3,1_0 + W_3,2_0 + W_3,3_0 + W_3,4_0 + W_3,5_0
                             + W_3,6_0 + 192 Z_3,1_1 + 128 Z_3,1_2 <= 0
 CapacityVerification3_2_2_: X_3,2_0 + 192 Z_3,2_1 + 128 Z_3,2_2 <= 0
 CapacityVerification3_3_2_: X_3,3_0 + 192 Z_3,3_1 + 128 Z_3,3_2 <= 0
 CapacityVerification3_4_2_: X_3,4_0 + 192 Z_3,4_1 + 128 Z_3,4_2 <= 0
 CapacityVerification3_5_2_: X_3,5_0 + 192 Z_3,5_1 + 128 Z_3,5_2 <= 0
 CapacityVerification3_6_2_: X_3,6_0 + 192 Z_3,6_1 + 128 Z_3,6_2 <= 0
 CapacityVerification4_1_2_: X_4,1_0 + W_4,2_0 + W_4,3_0 + W_4,4_0 + W_4,5_0
                             + W_4,6_0 + 192 Z_4,1_1 + 128 Z_4,1_2 <= 0
 CapacityVerification4_2_2_: X_4,2_0 + 192 Z_4,2_1 + 128 Z_4,2_2 <= 0
 CapacityVerification4_3_2_: X_4,3_0 + 192 Z_4,3_1 + 128 Z_4,3_2 <= 0
 CapacityVerification4_4_2_: X_4,4_0 + 192 Z_4,4_1 + 128 Z_4,4_2 <= 0
 CapacityVerification4_5_2_: X_4,5_0 + 192 Z_4,5_1 + 128 Z_4,5_2 <= 0
 CapacityVerification4_6_2_: X_4,6_0 + 192 Z_4,6_1 + 128 Z_4,6_2 <= 0
 CapacityVerification5_1_2_: X_5,1_0 + W_5,2_0 + W_5,3_0 + W_5,4_0 + W_5,5_0
                             + W_5,6_0 + 192 Z_5,1_1 + 128 Z_5,1_2 <= 0
 CapacityVerification5_2_2_: X_5,2_0 + 192 Z_5,2_1 + 128 Z_5,2_2 <= 0
 CapacityVerification5_3_2_: X_5,3_0 + 192 Z_5,3_1 + 128 Z_5,3_2 <= 0
 CapacityVerification5_4_2_: X_5,4_0 + 192 Z_5,4_1 + 128 Z_5,4_2 <= 0
 CapacityVerification5_5_2_: X_5,5_0 + 192 Z_5,5_1 + 128 Z_5,5_2 <= 0
 CapacityVerification5_6_2_: X_5,6_0 + 192 Z_5,6_1 + 128 Z_5,6_2 <= 0
 CapacityVerification6_1_2_: X_6,1_0 + W_6,2_0 + W_6,3_0 + W_6,4_0 + W_6,5_0
                             + W_6,6_0 + 192 Z_6,1_1 + 128 Z_6,1_2 <= 0
 CapacityVerification6_2_2_: X_6,2_0 + 192 Z_6,2_1 + 128 Z_6,2_2 <= 0
 CapacityVerification6_3_2_: X_6,3_0 + 192 Z_6,3_1 + 128 Z_6,3_2 <= 0
 CapacityVerification6_4_2_: X_6,4_0 + 192 Z_6,4_1 + 128 Z_6,4_2 <= 0
 CapacityVerification6_5_2_: X_6,5_0 + 192 Z_6,5_1 + 128 Z_6,5_2 <= 0
 CapacityVerification6_6_2_: X_6,6_0 + 192 Z_6,6_1 + 128 Z_6,6_2 <= 0
 FlowBalanceNode1_1_:        - Z_1,1_1 + Z_1,2_1 + Z_1,3_1 + Z_1,4_1 + Z_1,5_1
                             + Z_1,6_1 - Z_2,1_1 - Z_3,1_1 - Z_4,1_1 - Z_5,1_1
                             - Z_6,1_1  = 0
 FlowBalanceNode1_2_:        - Z_1,1_2 + Z_1,2_2 + Z_1,3_2 + Z_1,4_2 + Z_1,5_2
                             + Z_1,6_2 - Z_2,1_2 - Z_3,1_2 - Z_4,1_2 - Z_5,1_2
                             - Z_6,1_2  = 0
 FlowBalanceNode2_1_:        - Z_1,2_1 + Z_2,1_1 - Z_2,2_1 + Z_2,3_1 + Z_2,4_1
                             + Z_2,5_1 + Z_2,6_1 - Z_3,2_1 - Z_4,2_1 - Z_5,2_1
                             - Z_6,2_1  = 0
 FlowBalanceNode2_2_:        - Z_1,2_2 + Z_2,1_2 - Z_2,2_2 + Z_2,3_2 + Z_2,4_2
                             + Z_2,5_2 + Z_2,6_2 - Z_3,2_2 - Z_4,2_2 - Z_5,2_2
                             - Z_6,2_2  = 0
 FlowBalanceNode3_1_:        - Z_1,3_1 - Z_2,3_1 + Z_3,1_1 + Z_3,2_1 - Z_3,3_1
                             + Z_3,4_1 + Z_3,5_1 + Z_3,6_1 - Z_4,3_1 - Z_5,3_1
                             - Z_6,3_1  = 0
 FlowBalanceNode3_2_:        - Z_1,3_2 - Z_2,3_2 + Z_3,1_2 + Z_3,2_2 - Z_3,3_2
                             + Z_3,4_2 + Z_3,5_2 + Z_3,6_2 - Z_4,3_2 - Z_5,3_2
                             - Z_6,3_2  = 0
 FlowBalanceNode4_1_:        - Z_1,4_1 - Z_2,4_1 - Z_3,4_1 + Z_4,1_1 + Z_4,2_1
                             + Z_4,3_1 - Z_4,4_1 + Z_4,5_1 + Z_4,6_1 - Z_5,4_1
                             - Z_6,4_1  = 0
 FlowBalanceNode4_2_:        - Z_1,4_2 - Z_2,4_2 - Z_3,4_2 + Z_4,1_2 + Z_4,2_2
                             + Z_4,3_2 - Z_4,4_2 + Z_4,5_2 + Z_4,6_2 - Z_5,4_2
                             - Z_6,4_2  = 0
 FlowBalanceNode5_1_:        - Z_1,5_1 - Z_2,5_1 - Z_3,5_1 - Z_4,5_1 + Z_5,1_1
                             + Z_5,2_1 + Z_5,3_1 + Z_5,4_1 - Z_5,5_1 + Z_5,6_1
                             - Z_6,5_1  = 0
 FlowBalanceNode5_2_:        - Z_1,5_2 - Z_2,5_2 - Z_3,5_2 - Z_4,5_2 + Z_5,1_2
                             + Z_5,2_2 + Z_5,3_2 + Z_5,4_2 - Z_5,5_2 + Z_5,6_2
                             - Z_6,5_2  = 0
 FlowBalanceNode6_1_:        - Z_1,6_1 - Z_2,6_1 - Z_3,6_1 - Z_4,6_1 - Z_5,6_1
                             + Z_6,1_1 + Z_6,2_1 + Z_6,3_1 + Z_6,4_1 + Z_6,5_1
                             - Z_6,6_1  = 0
 FlowBalanceNode6_2_:        - Z_1,6_2 - Z_2,6_2 - Z_3,6_2 - Z_4,6_2 - Z_5,6_2
                             + Z_6,1_2 + Z_6,2_2 + Z_6,3_2 + Z_6,4_2 + Z_6,5_2
                             - Z_6,6_2  = 0
 AC:                         20 Z_1,1_1 + 21.6233333333333 Z_1,2_1
                             + 21.7066666666667 Z_1,3_1
                             + 21.0833333333333 Z_1,4_1 + 25.05 Z_1,5_1
                             + 24.32 Z_1,6_1 + 21.6233333333333 Z_2,1_1
                             + 20 Z_2,2_1 + 20.3733333333333 Z_2,3_1
                             + 21.0811111111111 Z_2,4_1
                             + 26.4333333333333 Z_2,5_1
                             + 25.7522222222222 Z_2,6_1
                             + 21.7066666666667 Z_3,1_1
                             + 20.3733333333333 Z_3,2_1 + 20 Z_3,3_1
                             + 21.3822222222222 Z_3,4_1
                             + 26.3011111111111 Z_3,5_1
                             + 25.6455555555556 Z_3,6_1
                             + 21.0833333333333 Z_4,1_1
                             + 21.0811111111111 Z_4,2_1
                             + 21.3822222222222 Z_4,3_1 + 20 Z_4,4_1
                             + 26.1277777777778 Z_4,5_1 + 25.39 Z_4,6_1
                             + 25.05 Z_5,1_1 + 26.4333333333333 Z_5,2_1
                             + 26.3011111111111 Z_5,3_1
                             + 26.1277777777778 Z_5,4_1 + 20 Z_5,5_1
                             + 20.7677777777778 Z_5,6_1 + 24.32 Z_6,1_1
                             + 25.7522222222222 Z_6,2_1
                             + 25.6455555555556 Z_6,3_1 + 25.39 Z_6,4_1
                             + 20.7677777777778 Z_6,5_1 + 20 Z_6,6_1 - RgAC
                              = 0
 AC:                         12 Z_1,1_2 + 13.6793103448276 Z_1,2_2
                             + 13.7655172413793 Z_1,3_2
                             + 13.1206896551724 Z_1,4_2
                             + 17.2241379310345 Z_1,5_2
                             + 16.4689655172414 Z_1,6_2
                             + 13.6793103448276 Z_2,1_2 + 12 Z_2,2_2
                             + 12.3862068965517 Z_2,3_2
                             + 13.1183908045977 Z_2,4_2
                             + 18.6551724137931 Z_2,5_2
                             + 17.9505747126437 Z_2,6_2
                             + 13.7655172413793 Z_3,1_2
                             + 12.3862068965517 Z_3,2_2 + 12 Z_3,3_2
                             + 13.4298850574713 Z_3,4_2
                             + 18.5183908045977 Z_3,5_2
                             + 17.8402298850575 Z_3,6_2
                             + 13.1206896551724 Z_4,1_2
                             + 13.1183908045977 Z_4,2_2
                             + 13.4298850574713 Z_4,3_2 + 12 Z_4,4_2
                             + 18.3390804597701 Z_4,5_2
                             + 17.5758620689655 Z_4,6_2
                             + 17.2241379310345 Z_5,1_2
                             + 18.6551724137931 Z_5,2_2
                             + 18.5183908045977 Z_5,3_2
                             + 18.3390804597701 Z_5,4_2 + 12 Z_5,5_2
                             + 12.7942528735632 Z_5,6_2
                             + 16.4689655172414 Z_6,1_2
                             + 17.9505747126437 Z_6,2_2
                             + 17.8402298850575 Z_6,3_2
                             + 17.5758620689655 Z_6,4_2
                             + 12.7942528735632 Z_6,5_2 + 12 Z_6,6_2 - RgAC
                              = 0
Bounds
      X_1,1_0 >= 0
      X_1,2_0 >= 0
      X_1,3_0 >= 0
      X_1,4_0 >= 0
      X_1,5_0 >= 0
      X_1,6_0 >= 0
      X_2,1_0 >= 0
      X_2,2_0 >= 0
      X_2,3_0 >= 0
      X_2,4_0 >= 0
      X_2,5_0 >= 0
      X_2,6_0 >= 0
      X_3,1_0 >= 0
      X_3,2_0 >= 0
      X_3,3_0 >= 0
      X_3,4_0 >= 0
      X_3,5_0 >= 0
      X_3,6_0 >= 0
      X_4,1_0 >= 0
      X_4,2_0 >= 0
      X_4,3_0 >= 0
      X_4,4_0 >= 0
      X_4,5_0 >= 0
      X_4,6_0 >= 0
      X_5,1_0 >= 0
      X_5,2_0 >= 0
      X_5,3_0 >= 0
      X_5,4_0 >= 0
      X_5,5_0 >= 0
      X_5,6_0 >= 0
      X_6,1_0 >= 0
      X_6,2_0 >= 0
      X_6,3_0 >= 0
      X_6,4_0 >= 0
      X_6,5_0 >= 0
      X_6,6_0 >= 0
      W_1,1_0 >= 0
      W_1,2_0 >= 0
      W_1,3_0 >= 0
      W_1,4_0 >= 0
      W_1,5_0 >= 0
      W_1,6_0 >= 0
      W_2,1_0 >= 0
      W_2,2_0 >= 0
      W_2,3_0 >= 0
      W_2,4_0 >= 0
      W_2,5_0 >= 0
      W_2,6_0 >= 0
      W_3,1_0 >= 0
      W_3,2_0 >= 0
      W_3,3_0 >= 0
      W_3,4_0 >= 0
      W_3,5_0 >= 0
      W_3,6_0 >= 0
      W_4,1_0 >= 0
      W_4,2_0 >= 0
      W_4,3_0 >= 0
      W_4,4_0 >= 0
      W_4,5_0 >= 0
      W_4,6_0 >= 0
      W_5,1_0 >= 0
      W_5,2_0 >= 0
      W_5,3_0 >= 0
      W_5,4_0 >= 0
      W_5,5_0 >= 0
      W_5,6_0 >= 0
      W_6,1_0 >= 0
      W_6,2_0 >= 0
      W_6,3_0 >= 0
      W_6,4_0 >= 0
      W_6,5_0 >= 0
      W_6,6_0 >= 0
      Z_1,1_1 >= 0
      Z_1,2_1 >= 0
      Z_1,3_1 >= 0
      Z_1,4_1 >= 0
      Z_1,5_1 >= 0
      Z_1,6_1 >= 0
      Z_2,1_1 >= 0
      Z_2,2_1 >= 0
      Z_2,3_1 >= 0
      Z_2,4_1 >= 0
      Z_2,5_1 >= 0
      Z_2,6_1 >= 0
      Z_3,1_1 >= 0
      Z_3,2_1 >= 0
      Z_3,3_1 >= 0
      Z_3,4_1 >= 0
      Z_3,5_1 >= 0
      Z_3,6_1 >= 0
      Z_4,1_1 >= 0
      Z_4,2_1 >= 0
      Z_4,3_1 >= 0
      Z_4,4_1 >= 0
      Z_4,5_1 >= 0
      Z_4,6_1 >= 0
      Z_5,1_1 >= 0
      Z_5,2_1 >= 0
      Z_5,3_1 >= 0
      Z_5,4_1 >= 0
      Z_5,5_1 >= 0
      Z_5,6_1 >= 0
      Z_6,1_1 >= 0
      Z_6,2_1 >= 0
      Z_6,3_1 >= 0
      Z_6,4_1 >= 0
      Z_6,5_1 >= 0
      Z_6,6_1 >= 0
      Z_1,1_2 >= 0
      Z_1,2_2 >= 0
      Z_1,3_2 >= 0
      Z_1,4_2 >= 0
      Z_1,5_2 >= 0
      Z_1,6_2 >= 0
      Z_2,1_2 >= 0
      Z_2,2_2 >= 0
      Z_2,3_2 >= 0
      Z_2,4_2 >= 0
      Z_2,5_2 >= 0
      Z_2,6_2 >= 0
      Z_3,1_2 >= 0
      Z_3,2_2 >= 0
      Z_3,3_2 >= 0
      Z_3,4_2 >= 0
      Z_3,5_2 >= 0
      Z_3,6_2 >= 0
      Z_4,1_2 >= 0
      Z_4,2_2 >= 0
      Z_4,3_2 >= 0
      Z_4,4_2 >= 0
      Z_4,5_2 >= 0
      Z_4,6_2 >= 0
      Z_5,1_2 >= 0
      Z_5,2_2 >= 0
      Z_5,3_2 >= 0
      Z_5,4_2 >= 0
      Z_5,5_2 >= 0
      Z_5,6_2 >= 0
      Z_6,1_2 >= 0
      Z_6,2_2 >= 0
      Z_6,3_2 >= 0
      Z_6,4_2 >= 0
      Z_6,5_2 >= 0
      Z_6,6_2 >= 0
 0 <= RgDemand <= 2509
 0 <= RgDemand <= 1080
 0 <= RgDemand <= 558
 0 <= RgDemand <= 770
 0 <= RgDemand <= 713
 0 <= RgDemand <= 2509
 0 <= RgDemand <= 216
 0 <= RgDemand <= 112
 0 <= RgDemand <= 360
 0 <= RgDemand <= 333
 0 <= RgDemand <= 1080
 0 <= RgDemand <= 216
 0 <= RgDemand <= 78
 0 <= RgDemand <= 46
 0 <= RgDemand <= 43
 0 <= RgDemand <= 558
 0 <= RgDemand <= 112
 0 <= RgDemand <= 78
 0 <= RgDemand <= 32
 0 <= RgDemand <= 30
 0 <= RgDemand <= 770
 0 <= RgDemand <= 360
 0 <= RgDemand <= 46
 0 <= RgDemand <= 32
 0 <= RgDemand <= 70
 0 <= RgDemand <= 713
 0 <= RgDemand <= 333
 0 <= RgDemand <= 43
 0 <= RgDemand <= 30
 0 <= RgDemand <= 70
 0 <= RgTransfer <= 216
 0 <= RgTransfer <= 112
 0 <= RgTransfer <= 360
 0 <= RgTransfer <= 333
 0 <= RgTransfer <= 216
 0 <= RgTransfer <= 78
 0 <= RgTransfer <= 46
 0 <= RgTransfer <= 43
 0 <= RgTransfer <= 112
 0 <= RgTransfer <= 78
 0 <= RgTransfer <= 32
 0 <= RgTransfer <= 30
 0 <= RgTransfer <= 360
 0 <= RgTransfer <= 46
 0 <= RgTransfer <= 32
 0 <= RgTransfer <= 70
 0 <= RgTransfer <= 333
 0 <= RgTransfer <= 43
 0 <= RgTransfer <= 30
 0 <= RgTransfer <= 70
 0 <= RgAC <= 28
 0 <= RgAC <= 24
Generals
 X_1,1_0  X_1,2_0  X_1,3_0  X_1,4_0  X_1,5_0  X_1,6_0  X_2,1_0  X_2,2_0 
 X_2,3_0  X_2,4_0  X_2,5_0  X_2,6_0  X_3,1_0  X_3,2_0  X_3,3_0  X_3,4_0 
 X_3,5_0  X_3,6_0  X_4,1_0  X_4,2_0  X_4,3_0  X_4,4_0  X_4,5_0  X_4,6_0 
 X_5,1_0  X_5,2_0  X_5,3_0  X_5,4_0  X_5,5_0  X_5,6_0  X_6,1_0  X_6,2_0 
 X_6,3_0  X_6,4_0  X_6,5_0  X_6,6_0  W_1,1_0  W_1,2_0  W_1,3_0  W_1,4_0 
 W_1,5_0  W_1,6_0  W_2,1_0  W_2,2_0  W_2,3_0  W_2,4_0  W_2,5_0  W_2,6_0 
 W_3,1_0  W_3,2_0  W_3,3_0  W_3,4_0  W_3,5_0  W_3,6_0  W_4,1_0  W_4,2_0 
 W_4,3_0  W_4,4_0  W_4,5_0  W_4,6_0  W_5,1_0  W_5,2_0  W_5,3_0  W_5,4_0 
 W_5,5_0  W_5,6_0  W_6,1_0  W_6,2_0  W_6,3_0  W_6,4_0  W_6,5_0  W_6,6_0 
 Z_1,1_1  Z_1,2_1  Z_1,3_1  Z_1,4_1  Z_1,5_1  Z_1,6_1  Z_2,1_1  Z_2,2_1 
 Z_2,3_1  Z_2,4_1  Z_2,5_1  Z_2,6_1  Z_3,1_1  Z_3,2_1  Z_3,3_1  Z_3,4_1 
 Z_3,5_1  Z_3,6_1  Z_4,1_1  Z_4,2_1  Z_4,3_1  Z_4,4_1  Z_4,5_1  Z_4,6_1 
 Z_5,1_1  Z_5,2_1  Z_5,3_1  Z_5,4_1  Z_5,5_1  Z_5,6_1  Z_6,1_1  Z_6,2_1 
 Z_6,3_1  Z_6,4_1  Z_6,5_1  Z_6,6_1  Z_1,1_2  Z_1,2_2  Z_1,3_2  Z_1,4_2 
 Z_1,5_2  Z_1,6_2  Z_2,1_2  Z_2,2_2  Z_2,3_2  Z_2,4_2  Z_2,5_2  Z_2,6_2 
 Z_3,1_2  Z_3,2_2  Z_3,3_2  Z_3,4_2  Z_3,5_2  Z_3,6_2  Z_4,1_2  Z_4,2_2 
 Z_4,3_2  Z_4,4_2  Z_4,5_2  Z_4,6_2  Z_5,1_2  Z_5,2_2  Z_5,3_2  Z_5,4_2 
 Z_5,5_2  Z_5,6_2  Z_6,1_2  Z_6,2_2  Z_6,3_2  Z_6,4_2  Z_6,5_2  Z_6,6_2 
End
